1 100 752 115
0 35.0 35.0 0.0 0.0 0 230
2 41.0 49.0 10.0 10.0 73 204 1 5
3 35.0 17.0 10.0 7.0 18 147 2 5
4 55.0 45.0 10.0 13.0 76 165 3 5
5 55.0 20.0 10.0 19.0 73 195 4 5
6 15.0 30.0 10.0 26.0 20 167 5 5
7 25.0 30.0 10.0 3.0 49 158 6 10
8 20.0 50.0 10.0 5.0 36 135 7 10
9 10.0 43.0 10.0 9.0 50 149 8 10
10 55.0 60.0 10.0 16.0 47 156 9 10
11 30.0 60.0 10.0 16.0 85 172 10 10
12 20.0 65.0 10.0 12.0 33 152 11 15
13 50.0 35.0 10.0 19.0 15 133 12 15
14 30.0 25.0 10.0 23.0 79 208 13 15
15 15.0 10.0 10.0 20.0 32 187 14 15
16 30.0 5.0 10.0 8.0 30 152 15 15
17 10.0 20.0 10.0 19.0 29 139 16 5
18 5.0 30.0 10.0 2.0 60 189 17 5
19 20.0 40.0 10.0 12.0 47 136 18 5
20 15.0 60.0 10.0 17.0 32 146 19 5
21 45.0 65.0 10.0 9.0 79 182 20 5
22 45.0 20.0 10.0 11.0 18 136 21 10
23 45.0 10.0 10.0 18.0 50 153 22 10
24 55.0 5.0 10.0 29.0 36 155 23 10
25 65.0 35.0 10.0 3.0 58 190 24 10
26 65.0 20.0 10.0 6.0 56 186 25 10
27 45.0 30.0 10.0 17.0 87 186 26 15
28 35.0 40.0 10.0 16.0 5 140 27 15
29 41.0 37.0 10.0 16.0 6 136 28 15
30 64.0 42.0 10.0 9.0 29 150 29 15
31 40.0 60.0 10.0 21.0 25 132 30 15
32 31.0 52.0 10.0 27.0 17 138 31 5
33 35.0 69.0 10.0 23.0 67 186 32 5
34 53.0 52.0 10.0 11.0 24 161 33 5
35 65.0 55.0 10.0 14.0 70 173 34 5
36 63.0 65.0 10.0 8.0 54 178 35 5
37 2.0 60.0 10.0 5.0 41 178 36 10
38 20.0 20.0 10.0 8.0 87 190 37 10
39 5.0 5.0 10.0 16.0 42 153 38 10
40 60.0 12.0 10.0 31.0 33 186 39 10
41 40.0 25.0 10.0 9.0 40 139 40 10
42 42.0 7.0 10.0 5.0 43 160 41 15
43 24.0 12.0 10.0 5.0 25 158 42 15
44 23.0 3.0 10.0 7.0 82 185 43 15
45 11.0 14.0 10.0 18.0 31 144 44 15
46 6.0 38.0 10.0 16.0 29 169 45 15
47 2.0 48.0 10.0 1.0 63 180 46 5
48 8.0 56.0 10.0 27.0 34 176 47 5
49 13.0 52.0 10.0 36.0 65 192 48 5
50 6.0 68.0 10.0 30.0 73 152 49 5
51 47.0 47.0 10.0 13.0 75 182 50 5
52 49.0 58.0 10.0 10.0 36 149 51 10
53 27.0 43.0 10.0 9.0 11 133 52 10
54 37.0 31.0 10.0 14.0 51 148 53 10
55 57.0 29.0 10.0 18.0 90 197 54 10
56 63.0 23.0 10.0 2.0 69 189 55 10
57 53.0 12.0 10.0 6.0 76 190 56 15
58 32.0 12.0 10.0 7.0 48 163 57 15
59 36.0 26.0 10.0 18.0 84 210 58 15
60 21.0 24.0 10.0 28.0 17 183 59 15
61 17.0 34.0 10.0 3.0 70 201 60 15
62 12.0 24.0 10.0 13.0 29 132 61 5
63 24.0 58.0 10.0 19.0 25 154 62 5
64 27.0 69.0 10.0 10.0 34 172 63 5
65 15.0 77.0 10.0 9.0 46 165 64 5
66 62.0 77.0 10.0 20.0 49 170 65 5
67 49.0 73.0 10.0 25.0 68 179 66 10
68 67.0 5.0 10.0 25.0 43 156 67 10
69 56.0 39.0 10.0 36.0 80 198 68 10
70 37.0 47.0 10.0 6.0 12 137 69 10
71 37.0 56.0 10.0 5.0 48 198 70 10
72 57.0 68.0 10.0 15.0 39 148 71 15
73 47.0 16.0 10.0 25.0 22 170 72 15
74 44.0 17.0 10.0 9.0 30 135 73 15
75 46.0 13.0 10.0 8.0 74 195 74 15
76 49.0 11.0 10.0 18.0 27 141 75 15
77 49.0 42.0 10.0 13.0 27 128 76 5
78 53.0 43.0 10.0 14.0 72 200 77 5
79 61.0 52.0 10.0 3.0 42 159 78 5
80 57.0 48.0 10.0 23.0 47 146 79 5
81 56.0 37.0 10.0 6.0 73 198 80 5
82 55.0 54.0 10.0 26.0 57 140 81 10
83 15.0 47.0 10.0 16.0 23 146 82 10
84 14.0 37.0 10.0 11.0 21 157 83 10
85 11.0 31.0 10.0 7.0 57 154 84 10
86 16.0 22.0 10.0 41.0 44 147 85 10
87 4.0 18.0 10.0 35.0 49 148 86 15
88 28.0 18.0 10.0 26.0 61 134 87 15
89 26.0 52.0 10.0 9.0 21 136 88 15
90 26.0 35.0 10.0 15.0 68 211 89 15
91 31.0 67.0 10.0 3.0 46 153 90 15
92 15.0 19.0 10.0 1.0 70 194 91 5
93 22.0 22.0 10.0 2.0 18 159 92 5
94 18.0 24.0 10.0 22.0 60 199 93 5
95 26.0 27.0 10.0 27.0 58 151 94 5
96 25.0 24.0 10.0 20.0 14 143 95 5
97 22.0 27.0 10.0 11.0 89 190 96 10
98 25.0 21.0 10.0 12.0 92 183 97 10
99 19.0 21.0 10.0 10.0 21 142 98 10
100 20.0 26.0 10.0 9.0 33 142 99 10
101 18.0 18.0 10.0 17.0 51 195 100 10